76060720157459400005014,1,1,2,07,7,1,2,09,5,1,2,011,10,1,2,05,7,1,2,014,4,1,2,012,4,1,2,012,6,1,2,02,3,1,2,02,7,1,2,01,1,1,2,08,7,1,2,03,13,1,2,06,7,1,2,08,15,1,2,015,7,1,2,06,6,1,2,014,11,1,2,09,8,1,2,010,1,1,2,012,3,1,2,05,4,1,2,014,10,1,2,06,10,1,2,03,9,1,2,04,5,1,2,05,8,1,2,09,2,1,2,01,12,1,2,01,11,1,2,05,15,1,2,011,12,1,2,03,15,1,2,013,2,1,2,02,5,1,2,06,9,1,2,012,5,1,2,02,13,1,2,06,11,1,2,010,10,1,2,06,11,1,2,012,2,1,2,09,5,1,2,09,5,1,2,05,10,1,2,05,9,1,2,03,15,1,2,03,3,1,2,013,7,1,2,015,1,1,2,0